DIMENSION: 22
EDGE_WEIGHT_TYPE: EXPLICIT
EDGE_WEIGHT_FORMAT: FULL_MATRIX
EDGE_WEIGHT_SECTION:
32767 32767 32767 91 32767 32767 7 29 32767 32767 89 32767 71 89 22 32767 43 51 32767 32767 32767 32767 
32767 32767 68 32767 32767 32767 32767 65 32767 32767 32767 32767 16 32767 45 48 35 65 32767 73 32767 32767 
32767 68 32767 21 32767 32767 61 98 6 32767 90 32767 32767 27 32767 71 32767 32767 67 32767 32767 32767 
91 32767 21 32767 32767 32767 58 32767 32767 74 95 32767 32767 32767 84 32767 32767 27 73 97 32767 32767 
32767 32767 32767 32767 32767 32767 56 32767 32767 32767 64 32767 32767 32767 32767 32767 49 35 32767 26 32767 32767 
32767 32767 32767 32767 32767 32767 32767 32767 32767 32767 32767 32767 32767 32767 32767 23 32767 32767 32767 69 49 35 
7 32767 61 58 56 32767 32767 32767 32767 32767 32767 22 13 32767 32767 32767 3 32767 77 9 85 32767 
29 65 98 32767 32767 32767 32767 32767 41 32767 39 32767 32767 23 32767 32767 32767 32767 15 49 32767 32767 
32767 32767 6 32767 32767 32767 32767 41 32767 60 32767 32767 38 78 32767 32767 4 54 32767 93 32767 32767 
32767 32767 32767 74 32767 32767 32767 32767 60 32767 32767 32767 51 32767 32767 62 100 89 32767 32767 32767 32767 
89 32767 90 95 64 32767 32767 39 32767 32767 32767 4 32767 32767 32767 32767 56 32767 32767 32767 32767 32767 
32767 32767 32767 32767 32767 32767 22 32767 32767 32767 4 32767 32767 32767 32767 32767 68 34 32767 4 1 32767 
71 16 32767 32767 32767 32767 13 32767 38 51 32767 32767 32767 32767 10 32767 32767 19 32767 88 32767 32767 
89 32767 27 32767 32767 32767 32767 23 78 32767 32767 32767 32767 32767 32767 32767 32767 32767 15 45 32767 32767 
22 45 32767 84 32767 32767 32767 32767 32767 32767 32767 32767 10 32767 32767 65 32767 32767 51 78 32767 32767 
32767 48 71 32767 32767 23 32767 32767 32767 62 32767 32767 32767 32767 65 32767 32767 32767 32767 32767 22 38 
43 35 32767 32767 49 32767 3 32767 4 100 56 68 32767 32767 32767 32767 32767 32767 32767 32767 32767 32767 
51 65 32767 27 35 32767 32767 32767 54 89 32767 34 19 32767 32767 32767 32767 32767 26 32767 32767 32767 
32767 32767 67 73 32767 32767 77 15 32767 32767 32767 32767 32767 15 51 32767 32767 26 32767 32767 32767 34 
32767 73 32767 97 26 69 9 49 93 32767 32767 4 88 45 78 32767 32767 32767 32767 32767 32767 32767 
32767 32767 32767 32767 32767 49 85 32767 32767 32767 32767 1 32767 32767 32767 22 32767 32767 32767 32767 32767 45 
32767 32767 32767 32767 32767 35 32767 32767 32767 32767 32767 32767 32767 32767 32767 38 32767 32767 34 32767 45 32767 
EOF